(set-info :smt-lib-version 2.6)
(set-info :category "crafted")
(set-logic QF_FFA)
(define-sort FF0 () (_ FiniteField 52435875175126190479447740508185965837690552500527637822603658699938581184513))
(declare-fun i () Bool)
(declare-fun g () Bool)
(declare-fun d () Bool)
(declare-fun a () Bool)
(declare-fun h () Bool)
(declare-fun b () Bool)
(declare-fun e () Bool)
(declare-fun c () Bool)
(declare-fun f () Bool)
(declare-fun j () Bool)
(declare-fun out () FF0)
(declare-fun _65 () FF0)
(declare-fun _64 () FF0)
(declare-fun _10 () FF0)
(declare-fun _63 () FF0)
(declare-fun _24 () FF0)
(declare-fun _23 () FF0)
(declare-fun _62 () FF0)
(declare-fun _12 () FF0)
(declare-fun _61 () FF0)
(declare-fun _60 () FF0)
(declare-fun _18 () FF0)
(declare-fun _59 () FF0)
(declare-fun _58 () FF0)
(declare-fun _13 () FF0)
(declare-fun _57 () FF0)
(declare-fun _7 () FF0)
(declare-fun _56 () FF0)
(declare-fun _55 () FF0)
(declare-fun _51 () FF0)
(declare-fun _54 () FF0)
(declare-fun _14 () FF0)
(declare-fun _53 () FF0)
(declare-fun _2 () FF0)
(declare-fun _52 () FF0)
(declare-fun _46 () FF0)
(declare-fun _45 () FF0)
(declare-fun _41 () FF0)
(declare-fun _6 () FF0)
(declare-fun _50 () FF0)
(declare-fun _8 () FF0)
(declare-fun _49 () FF0)
(declare-fun _48 () FF0)
(declare-fun _31 () FF0)
(declare-fun _30 () FF0)
(declare-fun _9 () FF0)
(declare-fun _5 () FF0)
(declare-fun _40 () FF0)
(declare-fun _39 () FF0)
(declare-fun _0 () FF0)
(declare-fun _38 () FF0)
(declare-fun _37 () FF0)
(declare-fun _35 () FF0)
(declare-fun _36 () FF0)
(declare-fun _34 () FF0)
(declare-fun _33 () FF0)
(declare-fun _3 () FF0)
(declare-fun _17 () FF0)
(declare-fun _16 () FF0)
(declare-fun _1 () FF0)
(declare-fun _15 () FF0)
(declare-fun _4 () FF0)
(assert 
  (let ((let0 i))
  (let ((let1 g))
  (let ((let2 (= let1 let0)))
  (let ((let3 d))
  (let ((let4 a))
  (let ((let5 (and let4 let3)))
  (let ((let6 h))
  (let ((let7 b))
  (let ((let8 e))
  (let ((let9 (or let8 let7)))
  (let ((let10 (=> let8 let9)))
  (let ((let11 (and let10 let3 let7 let2 let6)))
  (let ((let12 c))
  (let ((let13 (not let12)))
  (let ((let14 (ite let4 let3 let13)))
  (let ((let15 (not let1)))
  (let ((let16 f))
  (let ((let17 j))
  (let ((let18 (ite let6 let16 let17)))
  (let ((let19 (and let13 let9 let5 let18)))
  (let ((let20 (or let12 let19 let15 let19 let16 let4 let15)))
  (let ((let21 (ite let17 let16 let11)))
  (let ((let22 (and let18 let21 let20 let0 let1)))
  (let ((let23 (or let22 let20 let21 let12 let10 let22 let2 let6 let9 let14 let11 let5 let5)))
  (let ((let24 (or let14 let23 let2)))
  (let ((let25 out))
  (let ((let26 (as ff1 FF0)))
  (let ((let27 (= let26 let25)))
  (let ((let28 (= let27 let24)))
  (let ((let29 (as ff0 FF0)))
  (let ((let30 (= let29 let25)))
  (let ((let31 (or let27 let30)))
  (let ((let32 (and let31 let28)))
  (let ((let33 _65))
  (let ((let34 (= let33 let25)))
  (let ((let35 (as ff52435875175126190479447740508185965837690552500527637822603658699938581184512 FF0)))
  (let ((let36 (ff.mul let33 let35)))
  (let ((let37 _64))
  (let ((let38 _10))
  (let ((let39 (ff.mul let38 let35)))
  (let ((let40 (ff.add let39 let37 let36 let26)))
  (let ((let41 (ff.add let39 let26)))
  (let ((let42 (ff.mul let37 let41)))
  (let ((let43 (= let42 let40)))
  (let ((let44 (ff.mul let37 let35)))
  (let ((let45 _63))
  (let ((let46 _24))
  (let ((let47 _23))
  (let ((let48 (ff.add let47 let46 let45 let44)))
  (let ((let49 (ff.add let47 let46)))
  (let ((let50 (ff.mul let49 let45)))
  (let ((let51 (= let50 let48)))
  (let ((let52 (ff.mul let45 let35)))
  (let ((let53 _62))
  (let ((let54 _12))
  (let ((let55 (ff.add let54 let53 let52)))
  (let ((let56 (ff.mul let53 let54)))
  (let ((let57 (= let56 let55)))
  (let ((let58 (ff.mul let53 let35)))
  (let ((let59 _61))
  (let ((let60 (ff.add let54 let59 let58)))
  (let ((let61 (ff.mul let59 let54)))
  (let ((let62 (= let61 let60)))
  (let ((let63 (ff.mul let59 let35)))
  (let ((let64 _60))
  (let ((let65 _18))
  (let ((let66 (ff.add let65 let64 let63)))
  (let ((let67 (ff.mul let64 let65)))
  (let ((let68 (= let67 let66)))
  (let ((let69 (ff.mul let64 let35)))
  (let ((let70 _59))
  (let ((let71 (ff.add let47 let46 let70 let69)))
  (let ((let72 (ff.mul let70 let49)))
  (let ((let73 (= let72 let71)))
  (let ((let74 (ff.mul let70 let35)))
  (let ((let75 _58))
  (let ((let76 _13))
  (let ((let77 (ff.add let76 let75 let74)))
  (let ((let78 (ff.mul let75 let76)))
  (let ((let79 (= let78 let77)))
  (let ((let80 (ff.mul let75 let35)))
  (let ((let81 _57))
  (let ((let82 _7))
  (let ((let83 (ff.add let82 let81 let80)))
  (let ((let84 (ff.mul let81 let82)))
  (let ((let85 (= let84 let83)))
  (let ((let86 (ff.mul let81 let35)))
  (let ((let87 _56))
  (let ((let88 (ff.add let39 let87 let86 let26)))
  (let ((let89 (ff.mul let87 let41)))
  (let ((let90 (= let89 let88)))
  (let ((let91 (ff.mul let87 let35)))
  (let ((let92 _55))
  (let ((let93 _51))
  (let ((let94 (ff.add let93 let92 let91)))
  (let ((let95 (ff.mul let92 let93)))
  (let ((let96 (= let95 let94)))
  (let ((let97 (ff.mul let92 let35)))
  (let ((let98 _54))
  (let ((let99 _14))
  (let ((let100 (ff.add let99 let98 let97)))
  (let ((let101 (ff.mul let98 let99)))
  (let ((let102 (= let101 let100)))
  (let ((let103 (ff.mul let98 let35)))
  (let ((let104 _53))
  (let ((let105 _2))
  (let ((let106 (ff.add let105 let104 let103)))
  (let ((let107 (ff.mul let104 let105)))
  (let ((let108 (= let107 let106)))
  (let ((let109 (ff.mul let104 let35)))
  (let ((let110 _52))
  (let ((let111 _46))
  (let ((let112 _45))
  (let ((let113 (ff.add let112 let111 let110 let109)))
  (let ((let114 (ff.add let112 let111)))
  (let ((let115 (ff.mul let110 let114)))
  (let ((let116 (= let115 let113)))
  (let ((let117 (ff.mul let110 let35)))
  (let ((let118 _41))
  (let ((let119 (ff.add let118 let93 let117)))
  (let ((let120 (ff.mul let93 let118)))
  (let ((let121 (= let120 let119)))
  (let ((let122 _6))
  (let ((let123 _50))
  (let ((let124 (ff.mul let123 let122)))
  (let ((let125 (= let124 let93)))
  (let ((let126 _8))
  (let ((let127 _49))
  (let ((let128 (ff.mul let127 let126)))
  (let ((let129 (= let128 let123)))
  (let ((let130 _48))
  (let ((let131 (ff.mul let130 let118)))
  (let ((let132 (= let131 let127)))
  (let ((let133 _31))
  (let ((let134 _30))
  (let ((let135 (ff.add let134 let133)))
  (let ((let136 (ff.mul let135 let114)))
  (let ((let137 (= let136 let130)))
  (let ((let138 _9))
  (let ((let139 (ff.mul let138 let35)))
  (let ((let140 (ff.add let139 let26)))
  (let ((let141 (ff.mul let140 let65)))
  (let ((let142 (= let141 let111)))
  (let ((let143 _5))
  (let ((let144 (ff.mul let138 let143)))
  (let ((let145 (= let144 let112)))
  (let ((let146 (ff.mul let118 let35)))
  (let ((let147 _40))
  (let ((let148 (ff.mul let122 let35)))
  (let ((let149 (ff.add let148 let147 let146 let26)))
  (let ((let150 (ff.add let148 let26)))
  (let ((let151 (ff.mul let147 let150)))
  (let ((let152 (= let151 let149)))
  (let ((let153 (ff.mul let147 let35)))
  (let ((let154 _39))
  (let ((let155 _0))
  (let ((let156 (ff.add let155 let154 let153)))
  (let ((let157 (ff.mul let154 let155)))
  (let ((let158 (= let157 let156)))
  (let ((let159 (ff.mul let154 let35)))
  (let ((let160 _38))
  (let ((let161 (ff.add let143 let160 let159)))
  (let ((let162 (ff.mul let160 let143)))
  (let ((let163 (= let162 let161)))
  (let ((let164 (ff.mul let160 let35)))
  (let ((let165 _37))
  (let ((let166 _35))
  (let ((let167 (ff.add let166 let165 let164)))
  (let ((let168 (ff.mul let165 let166)))
  (let ((let169 (= let168 let167)))
  (let ((let170 (ff.mul let165 let35)))
  (let ((let171 _36))
  (let ((let172 (ff.add let148 let171 let170 let26)))
  (let ((let173 (ff.mul let171 let150)))
  (let ((let174 (= let173 let172)))
  (let ((let175 _34))
  (let ((let176 (ff.mul let175 let135)))
  (let ((let177 (= let176 let166)))
  (let ((let178 _33))
  (let ((let179 (ff.mul let178 let54)))
  (let ((let180 (= let179 let175)))
  (let ((let181 (ff.mul let105 let35)))
  (let ((let182 (ff.add let181 let26)))
  (let ((let183 (ff.mul let182 let76)))
  (let ((let184 (= let183 let178)))
  (let ((let185 (ff.mul let82 let35)))
  (let ((let186 (ff.add let185 let26)))
  (let ((let187 (ff.mul let186 let138)))
  (let ((let188 (= let187 let133)))
  (let ((let189 (ff.mul let82 let143)))
  (let ((let190 (= let189 let134)))
  (let ((let191 (ff.mul let155 let35)))
  (let ((let192 (ff.add let191 let26)))
  (let ((let193 (ff.mul let192 let182)))
  (let ((let194 (= let193 let46)))
  (let ((let195 _3))
  (let ((let196 (ff.mul let155 let195)))
  (let ((let197 (= let196 let47)))
  (let ((let198 _17))
  (let ((let199 (ff.mul let198 let82)))
  (let ((let200 (= let199 let65)))
  (let ((let201 _16))
  (let ((let202 (ff.mul let201 let41)))
  (let ((let203 (= let202 let198)))
  (let ((let204 _1))
  (let ((let205 _15))
  (let ((let206 (ff.mul let205 let204)))
  (let ((let207 (= let206 let201)))
  (let ((let208 (ff.mul let99 let195)))
  (let ((let209 (= let208 let205)))
  (let ((let210 (ff.mul let99 let35)))
  (let ((let211 _4))
  (let ((let212 (ff.mul let211 let35)))
  (let ((let213 (ff.add let212 let76 let210 let26)))
  (let ((let214 (ff.add let212 let26)))
  (let ((let215 (ff.mul let214 let76)))
  (let ((let216 (= let215 let213)))
  (let ((let217 (ff.mul let76 let35)))
  (let ((let218 (ff.add let204 let211 let217)))
  (let ((let219 (ff.mul let211 let204)))
  (let ((let220 (= let219 let218)))
  (let ((let221 (= let196 let54)))
  (let ((let222 (ff.mul let126 let35)))
  (let ((let223 (ff.add let122 let222)))
  (let ((let224 (ff.mul let223 let223)))
  (let ((let225 (= let224 let38)))
  (let ((let226 (ff.mul let138 let138)))
  (let ((let227 (= let226 let138)))
  (let ((let228 (ff.mul let126 let126)))
  (let ((let229 (= let228 let126)))
  (let ((let230 (ff.mul let82 let82)))
  (let ((let231 (= let230 let82)))
  (let ((let232 (ff.mul let122 let122)))
  (let ((let233 (= let232 let122)))
  (let ((let234 (ff.mul let143 let143)))
  (let ((let235 (= let234 let143)))
  (let ((let236 (ff.mul let211 let211)))
  (let ((let237 (= let236 let211)))
  (let ((let238 (ff.mul let195 let195)))
  (let ((let239 (= let238 let195)))
  (let ((let240 (ff.mul let105 let105)))
  (let ((let241 (= let240 let105)))
  (let ((let242 (ff.mul let204 let204)))
  (let ((let243 (= let242 let204)))
  (let ((let244 (ff.mul let155 let155)))
  (let ((let245 (= let244 let155)))
  (let ((let246 (and let245 let243 let241 let239 let237 let235 let233 let231 let229 let227 let225 let221 let220 let216 let209 let207 let203 let200 let197 let194 let190 let188 let184 let180 let177 let174 let169 let163 let158 let152 let145 let142 let137 let132 let129 let125 let121 let116 let108 let102 let96 let90 let85 let79 let73 let68 let62 let57 let51 let43 let34)))
  (let ((let247 (ite let8 let26 let29)))
  (let ((let248 (= let211 let247)))
  (let ((let249 (ite let7 let26 let29)))
  (let ((let250 (= let204 let249)))
  (let ((let251 (ite let12 let26 let29)))
  (let ((let252 (= let105 let251)))
  (let ((let253 (ite let6 let26 let29)))
  (let ((let254 (= let82 let253)))
  (let ((let255 (ite let17 let26 let29)))
  (let ((let256 (= let138 let255)))
  (let ((let257 (ite let4 let26 let29)))
  (let ((let258 (= let155 let257)))
  (let ((let259 (ite let0 let26 let29)))
  (let ((let260 (= let126 let259)))
  (let ((let261 (ite let16 let26 let29)))
  (let ((let262 (= let143 let261)))
  (let ((let263 (ite let1 let26 let29)))
  (let ((let264 (= let122 let263)))
  (let ((let265 (ite let3 let26 let29)))
  (let ((let266 (= let195 let265)))
  (let ((let267 (and let266 let264 let262 let260 let258 let256 let254 let252 let250 let248)))
  (let ((let268 (and let267 let246)))
  (let ((let269 (=> let268 let32)))
  (let ((let270 (not let269)))
  let270
)))))))))))))))))))))))))))))))))))))))))))))))))))))))))))))))))))))))))))))))))))))))))))))))))))))))))))))))))))))))))))))))))))))))))))))))))))))))))))))))))))))))))))))))))))))))))))))))))))))))))))))))))))))))))))))))))))))))))))))))))))))))))))))))))))))))))))))))
)
(check-sat)
